* ENCODING=ISO-8859-1
NAME          CPLEX
ROWS
 N  obj1    
 G  c1      
 G  c2      
 G  c3      
 G  c4      
 G  c5      
 G  c6      
 G  c7      
 G  c8      
 G  c9      
 G  c10     
 G  c11     
 G  c12     
 G  c13     
 G  c14     
 G  c15     
 G  c16     
 G  c17     
 G  c18     
 G  c19     
 G  c20     
 G  c21     
 G  c22     
 G  c23     
 G  c24     
 G  c25     
 G  c26     
 G  c27     
 G  c28     
 G  c29     
 G  c30     
 G  c31     
 G  c32     
 G  c33     
 G  c34     
 G  c35     
 G  c36     
 G  c37     
 G  c38     
 G  c39     
 G  c40     
 G  c41     
 G  c42     
 G  c43     
 G  c44     
 G  c45     
 G  c46     
 G  c47     
 G  c48     
 G  c49     
 G  c50     
 G  c51     
 G  c52     
 G  c53     
 G  c54     
 G  c55     
 G  c56     
 G  c57     
 G  c58     
 G  c59     
 G  c60     
 G  c61     
 G  c62     
 G  c63     
 G  c64     
 G  c65     
 G  c66     
 G  c67     
 G  c68     
 G  c69     
 G  c70     
COLUMNS
    MARK0000  'MARKER'                 'INTORG'
    x1        obj1                            1
    x1        c28                           285
    x1        c31                           682
    x1        c38                           384
    x1        c45                           215
    x1        c52                           700
    x1        c56                           689
    x1        c58                           567
    x1        c69                           714
    x2        obj1                            1
    x2        c2                            264
    x2        c3                            332
    x2        c5                            498
    x2        c6                            795
    x2        c32                           788
    x2        c65                           989
    x2        c70                           333
    x3        obj1                            1
    x3        c3                            398
    x3        c8                            180
    x3        c9                            363
    x3        c12                           987
    x3        c26                           372
    x3        c36                           380
    x3        c39                           990
    x3        c46                           924
    x3        c48                           409
    x4        obj1                            1
    x4        c28                           862
    x4        c35                           454
    x4        c36                           304
    x4        c47                           286
    x4        c49                           636
    x4        c58                           939
    x4        c62                           917
    x4        c65                           330
    x5        obj1                            1
    x5        c11                           983
    x5        c16                           922
    x5        c56                           369
    x5        c60                           328
    x6        obj1                            1
    x6        c5                            127
    x6        c6                            461
    x6        c22                           774
    x6        c45                           938
    x6        c46                           631
    x6        c57                           720
    x7        obj1                            1
    x7        c18                           503
    x7        c24                           204
    x7        c25                           392
    x7        c31                           127
    x7        c33                           716
    x7        c35                           296
    x7        c42                           623
    x7        c70                           747
    x8        obj1                            1
    x8        c7                            803
    x8        c16                           554
    x8        c24                           419
    x8        c28                           133
    x8        c29                           841
    x8        c41                           271
    x8        c58                           596
    x8        c61                           582
    x9        obj1                            1
    x9        c4                            243
    x9        c9                            900
    x9        c16                           931
    x9        c41                           249
    x9        c53                           652
    x9        c56                           417
    x10       obj1                            1
    x10       c16                           102
    x10       c53                           147
    x10       c54                           868
    x11       obj1                            1
    x11       c6                            684
    x11       c16                           955
    x11       c19                           525
    x11       c28                           118
    x11       c32                           735
    x11       c38                           297
    x11       c41                           351
    x11       c53                           999
    x11       c68                           500
    x11       c70                           974
    x12       obj1                            1
    x12       c2                            545
    x12       c17                           441
    x12       c28                           923
    x12       c55                           215
    x12       c57                           560
    x12       c59                           788
    x12       c62                           570
    x12       c64                           253
    x13       obj1                            1
    x13       c5                            928
    x13       c6                            213
    x13       c7                            459
    x13       c25                           672
    x13       c50                           204
    x13       c53                           103
    x13       c56                           701
    x13       c59                           790
    x13       c62                           427
    x14       obj1                            1
    x14       c13                           303
    x14       c49                           368
    x14       c62                           697
    x14       c67                           303
    x15       obj1                            1
    x15       c9                            342
    x15       c20                           251
    x15       c31                           179
    x15       c60                           789
    x15       c67                           718
    x16       obj1                            1
    x16       c1                            539
    x16       c25                           937
    x16       c33                           906
    x16       c37                           688
    x16       c38                           704
    x16       c43                           877
    x17       obj1                            1
    x17       c7                            332
    x17       c11                           611
    x17       c16                           831
    x17       c25                           723
    x17       c27                           381
    x17       c36                           925
    x17       c51                           862
    x17       c57                           504
    x17       c68                           852
    x17       c70                           913
    x18       obj1                            1
    x18       c7                            815
    x18       c18                           410
    x18       c25                           187
    x18       c29                           870
    x18       c30                           767
    x18       c31                           543
    x18       c60                           766
    x18       c70                           342
    x19       obj1                            1
    x19       c9                            931
    x19       c11                           385
    x19       c49                           928
    x19       c54                           545
    x19       c55                           790
    x19       c59                           845
    x19       c67                           186
    x20       obj1                            1
    x20       c9                            207
    x20       c23                           207
    x20       c28                           913
    x20       c36                           147
    x20       c43                           800
    x20       c44                           366
    x20       c50                           312
    x21       obj1                            1
    x21       c1                            382
    x21       c26                           170
    x21       c33                           245
    x21       c39                           330
    x21       c46                           652
    x21       c53                           238
    x21       c58                           924
    x21       c62                           506
    x21       c64                           528
    x21       c70                           989
    x22       obj1                            1
    x22       c2                            945
    x22       c4                            774
    x22       c6                            936
    x22       c15                           860
    x22       c17                           923
    x22       c66                           319
    x23       obj1                            1
    x23       c3                            583
    x23       c11                           247
    x23       c13                           488
    x23       c16                           661
    x23       c22                           701
    x23       c25                           798
    x23       c43                           843
    x23       c62                           534
    x24       obj1                            1
    x24       c9                            405
    x24       c24                           522
    x24       c46                           560
    x24       c69                           701
    x25       obj1                            1
    x25       c3                            709
    x25       c4                            950
    x25       c8                            410
    x25       c10                           679
    x25       c34                           406
    x25       c39                           883
    x25       c44                           215
    x25       c48                           673
    x25       c51                           479
    x25       c61                           688
    x26       obj1                            1
    x26       c8                            942
    x26       c30                           925
    x26       c31                           640
    x26       c34                           474
    x26       c59                           667
    x27       obj1                            1
    x27       c2                            489
    x27       c10                           999
    x27       c19                           295
    x27       c35                           737
    x27       c40                           317
    x27       c59                           795
    x27       c63                           420
    x28       obj1                            1
    x28       c1                            544
    x28       c2                            266
    x28       c19                           725
    x28       c23                           790
    x28       c36                           132
    x28       c40                           895
    x28       c48                           581
    x28       c50                           974
    x29       obj1                            1
    x29       c39                           393
    x29       c57                           716
    x29       c61                           355
    x29       c62                           645
    x29       c64                           101
    x29       c65                           846
    x30       obj1                            1
    x30       c2                            512
    x30       c25                           942
    x30       c29                           850
    x30       c35                           269
    x30       c37                           121
    x30       c40                           382
    x30       c41                           891
    x30       c58                           897
    x30       c67                           280
    x31       obj1                            1
    x31       c4                            755
    x31       c18                           717
    x31       c22                           210
    x31       c26                           513
    x31       c47                           809
    x31       c48                           554
    x31       c53                           101
    x32       obj1                            1
    x32       c1                            981
    x32       c4                            898
    x32       c5                            114
    x32       c22                           164
    x32       c36                           397
    x32       c46                           116
    x33       obj1                            1
    x33       c17                           113
    x33       c37                           313
    x33       c38                           946
    x33       c50                           770
    x33       c51                           548
    x33       c54                           109
    x33       c55                           830
    x33       c63                           701
    x34       obj1                            1
    x34       c3                            569
    x34       c13                           737
    x34       c19                           546
    x34       c41                           325
    x34       c48                           498
    x35       obj1                            1
    x35       c15                           550
    x35       c16                           967
    x35       c20                           365
    x35       c25                           286
    x35       c35                           181
    x35       c43                           519
    x35       c45                           315
    x36       obj1                            1
    x36       c11                           532
    x36       c26                           417
    x36       c33                           826
    x36       c38                           545
    x36       c47                           970
    x36       c52                           255
    x36       c58                           303
    x37       obj1                            1
    x37       c2                            829
    x37       c39                           321
    x37       c42                           445
    x37       c44                           796
    x37       c49                           972
    x38       obj1                            1
    x38       c3                            827
    x38       c37                           327
    x38       c49                           656
    x38       c68                           406
    x39       obj1                            1
    x39       c5                            543
    x39       c12                           598
    x39       c18                           218
    x39       c19                           674
    x39       c58                           504
    x40       obj1                            1
    x40       c12                           986
    x40       c19                           749
    x40       c24                           813
    x40       c40                           652
    x40       c44                           420
    x40       c50                           278
    x40       c52                           222
    x41       obj1                            1
    x41       c12                           991
    x41       c18                           246
    x41       c29                           157
    x41       c35                           924
    x41       c45                           589
    x41       c50                           650
    x41       c60                           858
    x42       obj1                            1
    x42       c29                           754
    x42       c39                           363
    x42       c40                           874
    x42       c55                           263
    x43       obj1                            1
    x43       c14                           308
    x43       c16                           323
    x43       c19                           971
    x43       c21                           486
    x43       c62                           201
    x44       obj1                            1
    x44       c1                            733
    x44       c6                            212
    x44       c9                            221
    x44       c28                           166
    x44       c32                           622
    x44       c44                           163
    x44       c70                           701
    x45       obj1                            1
    x45       c18                           989
    x45       c31                           665
    x45       c51                           843
    x45       c56                           403
    x46       obj1                            1
    x46       c6                            742
    x46       c17                           738
    x46       c25                           574
    x46       c38                           199
    x46       c39                           227
    x46       c67                           570
    x47       obj1                            1
    x47       c1                            634
    x47       c3                            846
    x47       c13                           774
    x47       c22                           306
    x47       c25                           843
    x47       c45                           857
    x47       c49                           100
    x47       c54                           321
    x47       c66                           155
    x48       obj1                            1
    x48       c17                           386
    x48       c22                           926
    x48       c27                           879
    x48       c36                           517
    x48       c37                           982
    x48       c38                           801
    x48       c50                           496
    x49       obj1                            1
    x49       c17                           954
    x49       c37                           111
    x49       c39                           981
    x49       c41                           515
    x49       c42                           629
    x49       c45                           629
    x49       c61                           699
    x49       c62                           673
    x50       obj1                            1
    x50       c1                            888
    x50       c5                            273
    x50       c40                           144
    x50       c51                           250
    x51       obj1                            1
    x51       c14                           655
    x51       c56                           554
    x52       obj1                            1
    x52       c2                            168
    x52       c10                           668
    x52       c21                           549
    x52       c24                           763
    x52       c35                           375
    x52       c69                           654
    x53       obj1                            1
    x53       c6                            131
    x53       c14                           255
    x53       c43                           517
    x53       c44                           521
    x53       c48                           769
    x53       c67                           940
    x54       obj1                            1
    x54       c8                            437
    x54       c10                           130
    x54       c15                           798
    x54       c17                           385
    x54       c20                           585
    x54       c21                           246
    x54       c61                           415
    x55       obj1                            1
    x55       c30                           700
    x55       c41                           883
    x55       c43                           244
    x55       c58                           122
    x56       obj1                            1
    x56       c6                            679
    x56       c47                           662
    x56       c68                           563
    x56       c70                           573
    x57       obj1                            1
    x57       c7                            477
    x57       c22                           569
    x57       c32                           447
    x57       c41                           890
    x57       c44                           492
    x57       c61                           693
    x57       c62                           649
    x58       obj1                            1
    x58       c2                            677
    x58       c7                            323
    x58       c24                           499
    x58       c56                           135
    x59       obj1                            1
    x59       c7                            257
    x59       c9                            675
    x59       c20                           653
    x59       c21                           920
    x59       c23                           881
    x59       c33                           548
    x59       c39                           947
    x59       c41                           808
    x59       c42                           933
    x59       c64                           922
    x59       c70                           693
    x60       obj1                            1
    x60       c14                           485
    x60       c37                           846
    x60       c43                           482
    x60       c49                           246
    x61       obj1                            1
    x61       c3                            240
    x61       c22                           412
    x61       c30                           437
    x61       c35                           897
    x61       c42                           297
    x61       c43                           323
    x61       c48                           666
    x61       c55                           703
    x61       c57                           879
    x61       c63                           607
    x61       c66                           542
    x62       obj1                            1
    x62       c12                           337
    x62       c52                           223
    x62       c56                           891
    x63       obj1                            1
    x63       c1                            587
    x63       c2                            221
    x63       c6                            490
    x63       c13                           370
    x63       c23                           611
    x63       c49                           942
    x63       c50                           612
    x63       c51                           791
    x63       c52                           798
    x63       c54                           140
    x63       c61                           193
    x63       c63                           527
    x63       c66                           383
    x63       c69                           458
    x64       obj1                            1
    x64       c22                           848
    x64       c27                           543
    x64       c30                           240
    x64       c40                           830
    x64       c45                           145
    x64       c57                           568
    x64       c68                           637
    x65       obj1                            1
    x65       c9                            737
    x65       c16                           676
    x65       c34                           707
    x65       c50                           813
    x65       c58                           963
    x65       c59                           232
    x65       c68                           743
    x66       obj1                            1
    x66       c1                            596
    x66       c28                           886
    x66       c53                           921
    x66       c57                           747
    x66       c58                           303
    x66       c70                           340
    x67       obj1                            1
    x67       c8                            778
    x67       c15                           939
    x67       c23                           391
    x67       c33                           671
    x67       c37                           378
    x67       c38                           674
    x67       c41                           500
    x67       c50                           931
    x67       c65                           452
    x68       obj1                            1
    x68       c20                           832
    x68       c32                           275
    x68       c44                           500
    x68       c52                           238
    x68       c56                           283
    x69       obj1                            1
    x69       c4                            975
    x69       c20                           223
    x69       c33                           789
    x69       c53                           364
    x69       c57                           350
    x69       c59                           928
    x69       c65                           603
    x70       obj1                            1
    x70       c9                            775
    x70       c27                           946
    x70       c34                           389
    x70       c38                           728
    x70       c46                           828
    x70       c56                           251
    MARK0001  'MARKER'                 'INTEND'
RHS
    rhs       c1                           2942
    rhs       c2                           2458
    rhs       c3                           2252
    rhs       c4                           2298
    rhs       c5                           1242
    rhs       c6                           2672
    rhs       c7                           1733
    rhs       c8                           1374
    rhs       c9                           2778
    rhs       c10                          1238
    rhs       c11                          1379
    rhs       c12                          1950
    rhs       c13                          1336
    rhs       c14                           852
    rhs       c15                          1574
    rhs       c16                          3461
    rhs       c17                          1970
    rhs       c18                          1542
    rhs       c19                          2243
    rhs       c20                          1455
    rhs       c21                          1101
    rhs       c22                          2455
    rhs       c23                          1440
    rhs       c24                          1610
    rhs       c25                          3177
    rhs       c26                           736
    rhs       c27                          1375
    rhs       c28                          2143
    rhs       c29                          1736
    rhs       c30                          1535
    rhs       c31                          1418
    rhs       c32                          1434
    rhs       c33                          2351
    rhs       c34                           988
    rhs       c35                          2067
    rhs       c36                          1401
    rhs       c37                          1883
    rhs       c38                          2639
    rhs       c39                          2718
    rhs       c40                          2047
    rhs       c41                          2842
    rhs       c42                          1464
    rhs       c43                          2303
    rhs       c44                          1737
    rhs       c45                          1844
    rhs       c46                          1856
    rhs       c47                          1364
    rhs       c48                          2075
    rhs       c49                          2424
    rhs       c50                          3020
    rhs       c51                          1887
    rhs       c52                          1218
    rhs       c53                          1763
    rhs       c54                           992
    rhs       c55                          1401
    rhs       c56                          2347
    rhs       c57                          2522
    rhs       c58                          3059
    rhs       c59                          2523
    rhs       c60                          1371
    rhs       c61                          1813
    rhs       c62                          2910
    rhs       c63                          1128
    rhs       c64                           902
    rhs       c65                          1610
    rhs       c66                           700
    rhs       c67                          1499
    rhs       c68                          1851
    rhs       c69                          1264
    rhs       c70                          3303
BOUNDS
 LI bnd       x1        0
 LI bnd       x2        0
 LI bnd       x3        0
 LI bnd       x4        0
 LI bnd       x5        0
 LI bnd       x6        0
 LI bnd       x7        0
 LI bnd       x8        0
 LI bnd       x9        0
 LI bnd       x10       0
 LI bnd       x11       0
 LI bnd       x12       0
 LI bnd       x13       0
 LI bnd       x14       0
 LI bnd       x15       0
 LI bnd       x16       0
 LI bnd       x17       0
 LI bnd       x18       0
 LI bnd       x19       0
 LI bnd       x20       0
 LI bnd       x21       0
 LI bnd       x22       0
 LI bnd       x23       0
 LI bnd       x24       0
 LI bnd       x25       0
 LI bnd       x26       0
 LI bnd       x27       0
 LI bnd       x28       0
 LI bnd       x29       0
 LI bnd       x30       0
 LI bnd       x31       0
 LI bnd       x32       0
 LI bnd       x33       0
 LI bnd       x34       0
 LI bnd       x35       0
 LI bnd       x36       0
 LI bnd       x37       0
 LI bnd       x38       0
 LI bnd       x39       0
 LI bnd       x40       0
 LI bnd       x41       0
 LI bnd       x42       0
 LI bnd       x43       0
 LI bnd       x44       0
 LI bnd       x45       0
 LI bnd       x46       0
 LI bnd       x47       0
 LI bnd       x48       0
 LI bnd       x49       0
 LI bnd       x50       0
 LI bnd       x51       0
 LI bnd       x52       0
 LI bnd       x53       0
 LI bnd       x54       0
 LI bnd       x55       0
 LI bnd       x56       0
 LI bnd       x57       0
 LI bnd       x58       0
 LI bnd       x59       0
 LI bnd       x60       0
 LI bnd       x61       0
 LI bnd       x62       0
 LI bnd       x63       0
 LI bnd       x64       0
 LI bnd       x65       0
 LI bnd       x66       0
 LI bnd       x67       0
 LI bnd       x68       0
 LI bnd       x69       0
 LI bnd       x70       0
ENDATA
